; benchmark generated from python API
(set-info :status unknown)
(declare-fun |__fml:a:1| () Bool)
(declare-fun |__fml:a:2| () Bool)
(declare-fun |__new_fml:a_a:1| () Bool)
(declare-fun |__new_fml:a_a:2| () Bool)
(declare-fun |__fml:a:0| () Bool)
(declare-fun |__new_fml:a_a:0| () Bool)
(declare-fun |__fml:r:2| () Bool)
(declare-fun |__new_fml:r_a:2| () Bool)
(declare-fun |__fml:r:0| () Bool)
(declare-fun |__new_fml:r_a:0| () Bool)
(declare-fun |__fml:r:1| () Bool)
(declare-fun |__new_fml:r_a:1| () Bool)
(declare-fun |__fml:s:2| () Bool)
(declare-fun |__new_fml:s_a:2| () Bool)
(declare-fun |__fml:s:0| () Bool)
(declare-fun |__new_fml:s_a:0| () Bool)
(declare-fun |__fml:s:1| () Bool)
(declare-fun |__new_fml:s_a:1| () Bool)
(declare-fun |r_W_10.assigned:1| () Bool)
(declare-fun |r_W_10.assigned:2| () Bool)
(declare-fun |r_W_10.assigned:0| () Bool)
(declare-fun r_S_11.has_flit () Bool)
(declare-fun r_W_10.has_flit () Bool)
(declare-fun r_PE_10.ready () Bool)
(declare-fun r_PE_10.has_flit () Bool)
(assert
 (let (($x78 (and (and |__new_fml:a_a:2| (and |__new_fml:a_a:1| true)) (and |__fml:a:2| (and |__fml:a:1| true)))))
 (let (($x73 (and (= |__new_fml:a_a:2| |__fml:a:2|) (= |__new_fml:a_a:1| |__fml:a:1|) (= |__new_fml:a_a:0| |__fml:a:0|))))
 (let (($x56 (and (= |__new_fml:r_a:2| |__fml:r:2|) (= |__new_fml:r_a:1| |__fml:r:1|) (= |__new_fml:r_a:0| |__fml:r:0|))))
 (let (($x37 (and (= |__new_fml:s_a:2| |__fml:s:2|) (= |__new_fml:s_a:1| |__fml:s:1|) (= |__new_fml:s_a:0| |__fml:s:0|))))
 (let (($x13 (and |r_W_10.assigned:2| (and |r_W_10.assigned:1| true))))
 (let (($x116 (= |r_W_10.assigned:1| false)))
 (let (($x24 (or (and (= |r_W_10.assigned:2| true) $x116 (= |r_W_10.assigned:0| true)) (and $x13 (and true (and false true))))))
 (let (($x383 (and (= |r_W_10.assigned:2| false) $x116 (= |r_W_10.assigned:0| false))))
 (and r_PE_10.has_flit r_PE_10.ready r_W_10.has_flit (or $x383 (and $x13 (and false (and false true)))) r_S_11.has_flit $x24 (or $x37 (and (and |__new_fml:s_a:2| true) (and |__fml:s:2| true))) (or $x56 (and (and |__new_fml:r_a:2| true) (and |__fml:r:2| true))) (or $x73 $x78)))))))))))
(assert
 (and (not or)))
(check-sat)
